N = 8;
H = 6;
T = 2;

avail = array3d(1..N, 1..H, 1..T, [2, 5, 0, 5, 5, 1, 10, 1, 1, 6, 8, 0, 8, 6, 5, 2, 5, 4, 8, 8, 0, 9, 0, 3, 4, 2, 9, 10, 9, 6, 1, 9, 0, 1, 7, 9, 2, 4, 4, 6, 0, 2, 1, 7, 8, 3, 5, 9, 8, 5, 3, 0, 4, 3, 9, 9, 5, 2, 7, 5, 4, 1, 7, 2, 9, 3, 7, 2, 5, 8, 1, 6, 2, 10, 7, 1, 4, 3, 5, 4, 8, 4, 1, 9, 2, 9, 8, 9, 6, 9, 6, 6, 3, 0, 0, 0]);

r = array2d(1..H, 1..T, [1, 4, 0, 4, 2, 4, 1, 3, 3, 2, 2, 1]);
